
Gurobi 13.0.2 (win64) logging started Fri Jul 24 05:40:08 2026

Set parameter LogFile to value "E:\codes\ExactEBRP\results\gf_c0_mechanism_transfer_c5_round30\runs\stage0r1_trace__moderate_seed4301__c0_diag__45s\external\native_logs\L0_attempt_0.gurobi.log"
Gurobi Optimizer version 13.0.2 build v13.0.2rc1 (win64 - Windows 10.0 (19045.2))

CPU model: 12th Gen Intel(R) Core(TM) i7-12700KF, instruction set [SSE2|AVX|AVX2]
Thread count: 12 physical cores, 20 logical processors, using up to 1 threads

Non-default parameters:
TimeLimit  15.7389577
MIPGap  0
MIPGapAbs  0
LogToConsole  0
Threads  1

Optimize a model with 11911 rows, 3376 columns and 67111 nonzeros (Min)
Model fingerprint: 0xea862b71
Model has 21 linear objective coefficients
Variable types: 1685 continuous, 1691 integer (1491 binary)
Coefficient statistics:
  Matrix range     [5e-03, 2e+04]
  Objective range  [8e-03, 1e+00]
  Bounds range     [5e-03, 5e+01]
  RHS range        [5e-03, 5e+04]

Presolve removed 4270 rows and 394 columns
Presolve time: 0.34s
Presolved: 7641 rows, 2982 columns, 52995 nonzeros
Variable types: 1529 continuous, 1453 integer (1319 binary)

Root relaxation: objective 4.528347e-03, 2905 iterations, 0.12 seconds (0.29 work units)

    Nodes    |    Current Node    |     Objective Bounds      |     Work
 Expl Unexpl |  Obj  Depth IntInf | Incumbent    BestBd   Gap | It/Node Time

     0     0    0.00453    0  183          -    0.00453      -     -    0s
     0     0    0.00458    0  210          -    0.00458      -     -    1s
     0     0    0.00497    0  219          -    0.00497      -     -    1s
     0     0    0.00502    0  197          -    0.00502      -     -    1s
     0     0    0.00504    0  205          -    0.00504      -     -    1s
     0     0    0.00504    0  271          -    0.00504      -     -    2s
     0     0    0.00504    0  227          -    0.00504      -     -    2s
     0     0    0.00504    0  224          -    0.00504      -     -    2s
     0     0    0.00504    0  210          -    0.00504      -     -    2s
     0     0    0.00504    0  230          -    0.00504      -     -    2s
     0     0    0.00504    0  237          -    0.00504      -     -    3s
     0     0    0.00504    0  169          -    0.00504      -     -    3s
     0     2    0.00504    0  162          -    0.00504      -     -    4s
    13     5    0.00666    7  163          -    0.00666      -   516    5s

Cutting planes:
  Learned: 2
  Gomory: 1
  Cover: 11
  Implied bound: 82
  Clique: 8
  MIR: 222
  StrongCG: 3
  Flow cover: 20
  GUB cover: 2
  Zero half: 1
  Network: 2
  RLT: 5
  Relax-and-lift: 36
  BQP: 5

Explored 23 nodes (33477 simplex iterations) in 5.18 seconds (10.38 work units)
Thread count was 1 (of 20 available processors)

Solution count 0

Model is infeasible
Best objective -, best bound -, gap -

User-callback calls 2064, time in user-callback 0.00 sec
